instances/tuning-use-case-3/ISA863RandomOvenSchedulingInstance-n25-k5-a5--0505-22.33.07.dzn
l=3086;
a=5;
setup_costs=[|15,15,16,9,0,
|15,22,14,24,3,
|16,14,20,14,21,
|9,24,14,18,23,
|0,3,21,23,12,
|0,0,0,0,0,|];
setup_times=[|2,1,23,18,10,
|1,7,12,20,13,
|23,12,19,19,24,
|18,20,19,19,18,
|10,13,24,18,15,
|0,0,0,0,0,|];
m=5;
min_cap=[0, 0, 0, 0, 0];
max_cap=[12, 78, 27, 57, 32];

initState=[3, 3, 3, 1, 4];
s=5;
m_a_s = [|0,169,1236,2195,2990,
|638,1709,2262,2484,2511,
|0,308,587,1715,2611,
|0,685,1585,2250,3007,
|0,167,291,1261,1439|];
m_a_e = [|0,1190,2079,2813,3083,
|1505,2190,2474,2511,2978,
|0,573,1444,2479,2990,
|0,1360,2129,2946,3070,
|0,272,1045,1395,2769|];
n=25;
eligible_machine =[{1, 5}, {3, 5}, {4, 5}, {1, 4}, {1, 3, 4}, {1, 2, 3}, {5}, {1}, {3}, {2}, {3}, {5}, {2}, {1, 4}, {4}, {1, 3, 4, 5}, {5}, {4}, {3}, {4}, {5}, {5}, {3, 4}, {1, 3, 4}, {3}];
earliest_start=[194, 84, 176, 349, 7, 76, 303, 170, 207, 474, 558, 201, 81, 380, 337, 328, 377, 250, 479, 257, 241, 394, 533, 446, 337];
latest_end=[230, 152, 349, 354, 155, 163, 328, 281, 292, 636, 657, 314, 174, 389, 476, 333, 442, 289, 489, 276, 353, 458, 584, 563, 393];
min_time=[30, 63, 96, 5, 90, 72, 17, 84, 63, 99, 89, 78, 70, 8, 81, 3, 43, 32, 6, 11, 88, 39, 28, 63, 38];
max_time=[87, 94, 100, 97, 99, 99, 66, 98, 86, 100, 99, 90, 94, 32, 94, 82, 80, 61, 18, 73, 89, 57, 55, 98, 77];
size=[2, 4, 1, 5, 2, 5, 4, 3, 1, 4, 3, 2, 2, 4, 5, 1, 1, 4, 1, 1, 5, 4, 3, 3, 4];
attribute=[3, 5, 4, 3, 4, 5, 5, 4, 2, 1, 2, 1, 3, 2, 5, 2, 1, 2, 2, 5, 2, 3, 1, 3, 2];

upper_bound_integer_objective=39000;
mult_factor_total_runtime=12;
mult_factor_finished_toolate=624;
mult_factor_total_setuptimes=0;
mult_factor_total_setupcosts=13;
running_time_bound=1296;
min_duration=3;
max_duration=99;
max_setup_time=24;
max_setup_cost=24;